--- Job tspmod.gms Start 07/03/20 20:28:30 31.1.0 r55b6ce3 WEX-WEI x86 64bit/MS Windows
--- Applying:
    E:\31.1\gmsprmNT.txt
--- GAMS Parameters defined
    Input C:\Users\hasee\Documents\GitHub\GAMS-MIRO\tsp\tspmod.gms
    PageSize 0
    ScrDir C:\Users\hasee\Documents\GitHub\GAMS-MIRO\tsp\225a\
    SysDir E:\31.1\
    LogOption 3
    ErrMsg 1
    ErrorLog 99
    IDE 1
    LstTitleLeftAligned 1
GAMS 31.1.0   Copyright (C) 1987-2020 GAMS Development. All rights reserved
*** License has expired 24 days ago
Licensee: CS526 Advanced Linear Programming              G200210/0001AS-GEN
          Course License UW-Madison, Prof Ferris, Spring 2020        DCE515
          E:\31.1\gamslice.txt
          Evaluation license: Not for commercial or production use
--- Starting compilation
--- tspmod.gms(5) 2 Mb
--- . set.csv(1) 3 Mb
--- tspmod.gms(13) 3 Mb
--- . capitals.csv(51) 3 Mb
--- tspmod.gms(78) 3 Mb
--- Starting execution: elapsed 0:00:00.007
--- tspmod.gms(106) 4 Mb
--- Generating MIP model tsp
--- tspmod.gms(107) 5 Mb
---   2,259 rows  2,352 columns  13,303 non-zeroes
---   2,256 discrete-columns
--- Executing CPLEX: elapsed 0:00:00.053

IBM ILOG CPLEX   31.1.0 r55b6ce3 Released May 01, 2020 WEI x86 64bit/MS Window
--- GAMS/Cplex licensed for continuous and discrete problems.
Cplex 12.10.0.0

Reading parameter(s) from "C:\Users\hasee\Documents\GitHub\GAMS-MIRO\tsp\cplex.opt"
>>  lpmethod 4
Finished reading from "C:\Users\hasee\Documents\GitHub\GAMS-MIRO\tsp\cplex.opt"
Reading data...
Starting Cplex...
Space for names approximately 0.16 Mb
Use option 'names no' to turn use of names off
Version identifier: 12.10.0.0 | 2019-11-26 | 843d4de2ae
CPXPARAM_Advance                                 0
CPXPARAM_LPMethod                                4
CPXPARAM_Threads                                 1
CPXPARAM_Parallel                                1
CPXPARAM_MIP_Display                             4
CPXPARAM_Barrier_Limits_Iteration                2000000000
CPXPARAM_TimeLimit                               1000
CPXPARAM_Tune_TimeLimit                          200
CPXPARAM_MIP_Tolerances_AbsMIPGap                0
CPXPARAM_WorkDir                                 "C:\Users\hasee\Documents\GitHub\GAMS-MIRO\tsp\225a\"
Tried aggregator 1 time.
MIP Presolve eliminated 1 rows and 49 columns.
Reduced MIP has 2258 rows, 2303 columns, and 10998 nonzeros.
Reduced MIP has 2256 binaries, 0 generals, 0 SOSs, and 0 indicators.
Presolve time = 0.02 sec. (5.73 ticks)
Found incumbent of value 682947.439140 after 0.03 sec. (16.85 ticks)
Probing time = 0.00 sec. (3.21 ticks)
Tried aggregator 1 time.
Detecting symmetries...
Reduced MIP has 2258 rows, 2303 columns, and 10998 nonzeros.
Reduced MIP has 2256 binaries, 0 generals, 0 SOSs, and 0 indicators.
Presolve time = 0.02 sec. (7.27 ticks)
Probing time = 0.02 sec. (3.20 ticks)
Clique table members: 1149.
MIP emphasis: balance optimality and feasibility.
MIP search method: dynamic search.
Parallel mode: none, using 1 thread.
Tried aggregator 1 time.
No LP presolve or aggregator reductions.
Presolve time = 0.00 sec. (1.36 ticks)
Initializing dual steep norms . . .

Iteration log . . .
Iteration:     1   Dual objective     =        554396.475475
Iteration:   166   Dual objective     =        657517.005516
Iteration:   355   Dual objective     =        665320.778103
Iteration:   557   Dual objective     =        667982.219165
Iteration:   619   Dual objective     =        667991.575799
Root relaxation solution time = 0.02 sec. (17.75 ticks)

        Nodes                                         Cuts/
   Node  Left     Objective  IInf  Best Integer    Best Bound    ItCnt     Gap

*     0+    0                       682947.4391        0.0000           100.00%
Found incumbent of value 682947.439140 after 0.08 sec. (55.69 ticks)
      0     0   667991.7560    47   682947.4391   667991.7560      631    2.19%
      0     0   667999.1936    47   682947.4391     Cuts: 124      705    2.19%
      0     0   668000.8721    47   682947.4391     Cuts: 117      769    2.19%
      0     0   668002.3655    47   682947.4391      Cuts: 99      827    2.19%
      0     0   668002.8063    47   682947.4391      Cuts: 44      851    2.19%
      0     0   668002.8425    47   682947.4391      Cuts: 22      872    2.19%
Detecting symmetries...
*     0+    0                       672390.9624   668002.8425             0.65%
Found incumbent of value 672390.962363 after 0.63 sec. (461.06 ticks)
*     0+    0                       671297.1506   668002.8425             0.49%
Found incumbent of value 671297.150571 after 0.66 sec. (491.22 ticks)
*     0+    0                       670876.1462   668002.8425             0.43%
Found incumbent of value 670876.146201 after 0.69 sec. (521.14 ticks)
*     0+    0                       670875.0754   668002.8425             0.43%
Found incumbent of value 670875.075392 after 0.70 sec. (526.98 ticks)
      0     0  -1.00000e+75     0   670875.0754   668002.8425      872    0.43%
Detecting symmetries...
      0     2   668002.8425    56   670875.0754   668002.8749      872    0.43%
Elapsed time = 0.84 sec. (639.51 ticks, tree = 0.01 MB, solutions = 5)
*    90+   86                       668486.8355   668003.0993             0.07%
Found incumbent of value 668486.835457 after 0.97 sec. (782.78 ticks)
*   107   102      integral     0   668439.4037   668003.0993     1752    0.07%
Found incumbent of value 668439.403722 after 1.00 sec. (805.18 ticks)
    142   137   668036.9779    37   668439.4037   668003.1786     2071    0.07%
                                                  Impl Bds: 2                  
*   218   208      integral     0   668400.2497   668003.1786     3003    0.06%
Found incumbent of value 668400.249654 after 1.20 sec. (1006.52 ticks)
*   280+  264                       668356.2135   668003.5341             0.05%
                                                      Cuts: 5                  
Found incumbent of value 668356.213459 after 1.28 sec. (1080.31 ticks)
    305   287   668039.9543    42   668356.2135   668003.6134     3984    0.05%
                                                      Cuts: 7                  
*   347   321      integral     0   668290.1335   668003.6134     4455    0.04%
Found incumbent of value 668290.133549 after 1.38 sec. (1169.85 ticks)
*   447+  407                       668282.5434   668003.9044             0.04%
                                                      Cuts: 5                  
Found incumbent of value 668282.543382 after 1.58 sec. (1342.44 ticks)
    460   418   668153.7872    49   668282.5434   668003.9044     5701    0.04%
    642   573   668230.5148    36   668282.5434   668004.0303     8200    0.04%
                                                     Cuts: 12                  
    812   728   668157.0446    18   668282.5434   668004.1633    10878    0.04%
                                                      Cuts: 9                  
*  1000+  871                       668273.9535   668004.3129             0.04%
                                                      Cuts: 5                  
Found incumbent of value 668273.953537 after 2.34 sec. (2086.30 ticks)
   1000   873   668152.7518    61   668273.9535   668004.3129    13120    0.04%
*  1110+  965                       668270.3851   668004.3224             0.04%
                                                   MIRcuts: 1                  
Found incumbent of value 668270.385058 after 2.50 sec. (2229.88 ticks)
   1111   968   668005.1700    64   668270.3851   668004.3910    14851    0.04%

Performing restart 1

Repeating presolve.
Tried aggregator 1 time.
MIP Presolve eliminated 0 rows and 821 columns.
Reduced MIP has 2258 rows, 1482 columns, and 8555 nonzeros.
Reduced MIP has 1435 binaries, 0 generals, 0 SOSs, and 0 indicators.
Presolve time = 0.02 sec. (4.77 ticks)
Tried aggregator 1 time.
MIP Presolve eliminated 25 rows and 0 columns.
Reduced MIP has 2233 rows, 1482 columns, and 8505 nonzeros.
Reduced MIP has 1435 binaries, 0 generals, 0 SOSs, and 0 indicators.
Presolve time = 0.02 sec. (5.58 ticks)
Represolve time = 0.05 sec. (27.72 ticks)
Tried aggregator 1 time.
No LP presolve or aggregator reductions.
Presolve time = 0.00 sec. (1.39 ticks)
Initializing dual steep norms . . .

Iteration log . . .
Iteration:     1   Dual objective     =        377519.550117
Iteration:   171   Dual objective     =        591778.908798
Iteration:   309   Dual objective     =        667934.995841
Iteration:   449   Dual objective     =        668003.441799
   1220     0   668004.9712    64   668270.3851      Cuts: 81    16994    0.04%
   1220     0   668006.5440    64   668270.3851      Cuts: 72    17075    0.04%
   1220     0   668007.3223    64   668270.3851     Cuts: 108    17137    0.04%
   1220     0   668007.6026    64   668270.3851      Cuts: 72    17186    0.04%
   1220     0   668007.8113    64   668270.3851      Cuts: 82    17234    0.04%
   1220     0   668007.9023    64   668270.3851      Cuts: 81    17272    0.04%
   1220     0   668007.9802    64   668270.3851      Cuts: 72    17305    0.04%
   1220     0   668008.0353    64   668270.3851      Cuts: 63    17335    0.04%
   1220     0   668008.0675    64   668270.3851      Cuts: 34    17364    0.04%
   1220     0   668008.2225    64   668270.3851      Cuts: 60    17406    0.04%
   1220     0   668008.2278    64   668270.3851      Cuts: 49    17423    0.04%
   1220     0   668008.2341    64   668270.3851      Cuts: 22    17439    0.04%
   1220     0   668008.2405    64   668270.3851       Cuts: 9    17450    0.04%
   1220     0   668008.2405    64   668270.3851       Cuts: 3    17452    0.04%
   1220     2   668008.2405    94   668270.3851   668008.2820    17452    0.04%
   1224     5   668008.6100    91   668270.3851   668008.6150    17602    0.04%
   1318    84   668224.5989    37   668270.3851   668008.6900    18449    0.04%
Elapsed time = 9.02 sec. (7304.16 ticks, tree = 0.09 MB, solutions = 16)
   1465   211   668056.6507    81   668270.3851   668008.7595    19187    0.04%
   1770   484   668024.1131    75   668270.3851   668008.9799    20800    0.04%
                                                      Cuts: 8                  
   2099   768   668009.7451    82   668270.3851   668009.4509    22975    0.04%
   2608  1232   668010.1880    80   668270.3851   668009.8694    25318    0.04%
   3267  1844   668010.2184    70   668270.3851   668010.1769    28399    0.04%
   4052  2583   668011.8836    87   668270.3851   668010.5647    32671    0.04%
   4819  3285   668033.8327    61   668270.3851   668010.7816    36914    0.04%
   5388  3815   668041.7597    88   668270.3851   668010.8924    39772    0.04%
   5952  4324   668011.8529    74   668270.3851   668010.9495    42931    0.04%
   6664  4999   668012.1176    84   668270.3851   668011.1741    46230    0.04%
Elapsed time = 19.80 sec. (17132.68 ticks, tree = 5.05 MB, solutions = 16)
*  7068  5006      integral     0   668237.1209   668011.2298    48556    0.03%
Found incumbent of value 668237.120922 after 20.55 sec. (17940.97 ticks)
   7195  5126   668195.1784    40   668237.1209   668011.2412    49666    0.03%
*  7476  5355      integral     0   668233.4327   668011.2828    51103    0.03%
Found incumbent of value 668233.432674 after 21.36 sec. (18676.97 ticks)
*  7576+ 5448                       668233.3950   668011.2836             0.03%
Found incumbent of value 668233.394958 after 21.52 sec. (18809.39 ticks)
*  7576+ 5438                       668231.0432   668011.2836             0.03%
Found incumbent of value 668231.043186 after 21.52 sec. (18816.18 ticks)
   7850  5696   668026.5790    64   668231.0432   668011.4227    53174    0.03%
   8641  6415   668016.0532    65   668231.0432   668011.6085    58185    0.03%
   9672  7384   668014.6349    80   668231.0432   668011.7999    63790    0.03%
  10268  7936   668033.5851    75   668231.0432   668011.9494    67093    0.03%
  11318  8931   668045.3427    62   668231.0432   668012.0538    73349    0.03%
* 11520+ 7549                       668170.2302   668012.0561             0.02%
Found incumbent of value 668170.230215 after 27.22 sec. (24140.36 ticks)
* 11520+ 7048                       668151.8122   668012.0561             0.02%
Found incumbent of value 668151.812157 after 27.33 sec. (24212.98 ticks)
* 11520+ 6409                       668133.7917   668012.0561             0.02%
Found incumbent of value 668133.791749 after 28.41 sec. (25090.91 ticks)
  11520  6411   668015.6318    85   668133.7917   668012.0561    74316    0.02%
* 11620+ 6315                       668128.8929   668012.2360             0.02%
Found incumbent of value 668128.892874 after 30.88 sec. (26964.57 ticks)

Performing restart 2

Repeating presolve.
Tried aggregator 1 time.
MIP Presolve eliminated 0 rows and 418 columns.
MIP Presolve modified 490 coefficients.
Reduced MIP has 2233 rows, 1064 columns, and 8838 nonzeros.
Reduced MIP has 1017 binaries, 0 generals, 0 SOSs, and 0 indicators.
Presolve time = 0.00 sec. (5.16 ticks)
Tried aggregator 1 time.
MIP Presolve eliminated 49 rows and 0 columns.
MIP Presolve modified 84 coefficients.
Reduced MIP has 2184 rows, 1064 columns, and 8656 nonzeros.
Reduced MIP has 1017 binaries, 0 generals, 0 SOSs, and 0 indicators.
Presolve time = 0.02 sec. (5.78 ticks)
Represolve time = 0.06 sec. (34.06 ticks)
Tried aggregator 1 time.
LP Presolve eliminated 2 rows and 0 columns.
Reduced LP has 2271 rows, 1064 columns, and 22494 nonzeros.
Presolve time = 0.00 sec. (2.20 ticks)
Initializing dual steep norms . . .

Iteration log . . .
Iteration:     1   Dual objective     =        362790.627517
Iteration:   210   Dual objective     =        618894.788556
Iteration:   409   Dual objective     =        667978.091744
Iteration:   522   Dual objective     =        668008.190577
Initializing dual steep norms . . .
  11730     0   668008.5316    94   668128.8929      Cuts: 85    76216    0.02%
  11730     0   668008.6269    94   668128.8929      Cuts: 55    76261    0.02%
  11730     0   668008.8354    94   668128.8929     Cuts: 106    76293    0.02%
  11730     0   668008.9018    94   668128.8929      Cuts: 67    76326    0.02%
  11730     0   668009.0551    94   668128.8929      Cuts: 53    76352    0.02%
  11730     0   668009.1166    94   668128.8929      Cuts: 47    76380    0.02%
  11730     0   668009.1545    94   668128.8929      Cuts: 25    76401    0.02%

Clique cuts applied:  3
Cover cuts applied:  3
Implied bound cuts applied:  2
Flow cuts applied:  1
Mixed integer rounding cuts applied:  30
Zero-half cuts applied:  15
Lift and project cuts applied:  23
Gomory fractional cuts applied:  19

Root node processing (before b&c):
  Real time             =    0.86 sec. (639.90 ticks)
Sequential b&c:
  Real time             =   33.14 sec. (28337.17 ticks)
                          ------------
Total (root+branch&cut) =   34.00 sec. (28977.07 ticks)
MIP status(113): aborted
Cplex Time: 34.00sec (det. 28977.08 ticks)
Fixing integer variables, and solving final LP...
Version identifier: 12.10.0.0 | 2019-11-26 | 843d4de2ae
CPXPARAM_Advance                                 2
CPXPARAM_LPMethod                                4
CPXPARAM_Threads                                 1
CPXPARAM_Parallel                                1
CPXPARAM_MIP_Display                             4
CPXPARAM_Barrier_Limits_Iteration                2000000000
CPXPARAM_TimeLimit                               1000
CPXPARAM_Tune_TimeLimit                          200
CPXPARAM_MIP_Tolerances_AbsMIPGap                0
CPXPARAM_WorkDir                                 "C:\Users\hasee\Documents\GitHub\GAMS-MIRO\tsp\225a\"
Tried aggregator 1 time.
DUAL formed by presolve
LP Presolve eliminated 97 rows and 2305 columns.
Reduced LP has 47 rows, 2256 columns, and 4418 nonzeros.
Presolve time = 0.00 sec. (4.06 ticks)
Parallel mode: none, using 1 thread for barrier
Number of nonzeros in lower triangle of A*A' = 1081
Using Approximate Minimum Degree ordering
Total time for automatic ordering = 0.00 sec. (0.04 ticks)
Summary statistics for Cholesky factor:
  Rows in Factor            = 47
  Integer space required    = 47
  Total non-zeros in factor = 1128
  Total FP ops to factor    = 35720
 Itn      Primal Obj        Dual Obj  Prim Inf Upper Inf  Dual Inf Inf Ratio
   0   5.6858289e+05   6.6812889e+05  0.00e+00  0.00e+00  2.80e+02  1.00e+00
   1   6.3996246e+05   6.6812889e+05  8.59e-13  0.00e+00  1.40e+02  1.57e+00
   2   6.4042864e+05   6.6812889e+05  5.28e-09  0.00e+00  1.15e+02  6.45e-01
   3   6.6573438e+05   6.6812889e+05  4.56e-10  0.00e+00  3.59e+01  2.00e+00
   4   6.6792641e+05   6.6812889e+05  8.12e-10  0.00e+00  1.99e+01  3.74e+00
   5   6.6812202e+05   6.6812889e+05  6.28e-11  0.00e+00  2.07e+00  3.95e+01
   6   6.6812888e+05   6.6812889e+05  1.79e-12  0.00e+00  1.75e-03  4.26e+04
   7   6.6812889e+05   6.6812889e+05  1.66e-11  0.00e+00  2.23e-07  8.52e+08
   8   6.6812889e+05   6.6812889e+05  1.03e-11  0.00e+00  3.37e-11  8.39e+12
   9   6.6812889e+05   6.6812889e+05  1.27e-13  0.00e+00  1.14e-11  3.11e+16
Barrier time = 0.00 sec. (6.55 ticks)

Primal crossover.
  Primal:  Fixing 1 variable.
        0 PMoves:  Infeasibility  0.00000000e+00  Objective  6.68128893e+05
  Primal:  Pushed 1, exchanged 0.
  Dual:  Fixing 1 variable.
        0 DMoves:  Infeasibility  0.00000000e+00  Objective  6.68128893e+05
  Dual:  Pushed 0, exchanged 1.
Total crossover time = 0.02 sec. (1.42 ticks)

Total time on 1 threads = 0.02 sec. (12.12 ticks)
Fixed MIP status(1): optimal
Cplex Time: 0.02sec (det. 12.12 ticks)

Problem aborted.

MIP Solution:       668128.892874    (76401 iterations, 11730 nodes)
Final Solve:        668128.892874    (0 iterations)

Best possible:      668012.239863
Absolute gap:          116.653011
Relative gap:            0.000175

Terminate batch job (Y/N)? 
--- Restarting execution
--- tspmod.gms(107) 2 Mb
--- Reading solution for model tsp
--- Executing after solve: elapsed 0:00:34.205
--- tspmod.gms(130) 4 Mb
*** Status: Normal completion
--- Job tspmod.gms Stop 07/03/20 20:29:04 elapsed 0:00:34.220
